c turning on binary mode checking
c parsing input formula with 202048 variables and 780990 clauses
c finished parsing, read 2571954 bytes from proof file
c detected empty clause; start verification via backward checking
c 7229 of 780990 clauses in core                            
c 2594 of 100576 lemmas in core using 152864 resolution steps
c 0 RAT lemmas in core; 809 redundant literals in core lemmas
s VERIFIED
c verification time: 1.242 seconds
